p cnf 344 2560
1 -145 0
1 -146 0
145 -145 0
146 -146 0
19 -153 0
19 -154 0
153 -153 0
154 -154 0
37 -161 0
37 -162 0
161 -161 0
162 -162 0
55 -169 0
55 -170 0
169 -169 0
170 -170 0
73 -177 0
73 -178 0
177 -177 0
178 -178 0
91 -185 0
91 -186 0
185 -185 0
186 -186 0
109 -193 0
109 -194 0
193 -193 0
194 -194 0
127 -201 0
127 -202 0
201 -201 0
202 -202 0
2 -145 0
2 -146 0
145 -145 0
146 -146 0
20 -153 0
20 -154 0
153 -153 0
154 -154 0
38 -161 0
38 -162 0
161 -161 0
162 -162 0
56 -169 0
56 -170 0
169 -169 0
170 -170 0
74 -177 0
74 -178 0
177 -177 0
178 -178 0
92 -185 0
92 -186 0
185 -185 0
186 -186 0
110 -193 0
110 -194 0
193 -193 0
194 -194 0
128 -201 0
128 -202 0
201 -201 0
202 -202 0
-3 -145 0
-3 -146 0
145 -145 0
146 -146 0
-21 -153 0
-21 -154 0
153 -153 0
154 -154 0
-39 -161 0
-39 -162 0
161 -161 0
162 -162 0
-57 -169 0
-57 -170 0
169 -169 0
170 -170 0
-75 -177 0
-75 -178 0
177 -177 0
178 -178 0
-93 -185 0
-93 -186 0
185 -185 0
186 -186 0
-111 -193 0
-111 -194 0
193 -193 0
194 -194 0
-129 -201 0
-129 -202 0
201 -201 0
202 -202 0
4 -145 0
4 -146 0
145 -145 0
146 -146 0
22 -153 0
22 -154 0
153 -153 0
154 -154 0
40 -161 0
40 -162 0
161 -161 0
162 -162 0
58 -169 0
58 -170 0
169 -169 0
170 -170 0
76 -177 0
76 -178 0
177 -177 0
178 -178 0
94 -185 0
94 -186 0
185 -185 0
186 -186 0
112 -193 0
112 -194 0
193 -193 0
194 -194 0
130 -201 0
130 -202 0
201 -201 0
202 -202 0
5 -145 0
5 -146 0
145 -145 0
146 -146 0
23 -153 0
23 -154 0
153 -153 0
154 -154 0
41 -161 0
41 -162 0
161 -161 0
162 -162 0
59 -169 0
59 -170 0
169 -169 0
170 -170 0
77 -177 0
77 -178 0
177 -177 0
178 -178 0
95 -185 0
95 -186 0
185 -185 0
186 -186 0
113 -193 0
113 -194 0
193 -193 0
194 -194 0
131 -201 0
131 -202 0
201 -201 0
202 -202 0
6 -145 0
6 -146 0
145 -145 0
146 -146 0
24 -153 0
24 -154 0
153 -153 0
154 -154 0
42 -161 0
42 -162 0
161 -161 0
162 -162 0
60 -169 0
60 -170 0
169 -169 0
170 -170 0
78 -177 0
78 -178 0
177 -177 0
178 -178 0
96 -185 0
96 -186 0
185 -185 0
186 -186 0
114 -193 0
114 -194 0
193 -193 0
194 -194 0
132 -201 0
132 -202 0
201 -201 0
202 -202 0
7 -145 0
7 -146 0
145 -145 0
146 -146 0
25 -153 0
25 -154 0
153 -153 0
154 -154 0
43 -161 0
43 -162 0
161 -161 0
162 -162 0
61 -169 0
61 -170 0
169 -169 0
170 -170 0
79 -177 0
79 -178 0
177 -177 0
178 -178 0
97 -185 0
97 -186 0
185 -185 0
186 -186 0
115 -193 0
115 -194 0
193 -193 0
194 -194 0
133 -201 0
133 -202 0
201 -201 0
202 -202 0
8 -145 0
8 -146 0
145 -145 0
146 -146 0
26 -153 0
26 -154 0
153 -153 0
154 -154 0
44 -161 0
44 -162 0
161 -161 0
162 -162 0
62 -169 0
62 -170 0
169 -169 0
170 -170 0
80 -177 0
80 -178 0
177 -177 0
178 -178 0
98 -185 0
98 -186 0
185 -185 0
186 -186 0
116 -193 0
116 -194 0
193 -193 0
194 -194 0
134 -201 0
134 -202 0
201 -201 0
202 -202 0
9 -145 0
9 -146 0
145 -145 0
146 -146 0
27 -153 0
27 -154 0
153 -153 0
154 -154 0
45 -161 0
45 -162 0
161 -161 0
162 -162 0
63 -169 0
63 -170 0
169 -169 0
170 -170 0
81 -177 0
81 -178 0
177 -177 0
178 -178 0
99 -185 0
99 -186 0
185 -185 0
186 -186 0
117 -193 0
117 -194 0
193 -193 0
194 -194 0
135 -201 0
135 -202 0
201 -201 0
202 -202 0
-10 -145 0
-10 -146 0
145 -145 0
146 -146 0
-28 -153 0
-28 -154 0
153 -153 0
154 -154 0
-46 -161 0
-46 -162 0
161 -161 0
162 -162 0
-64 -169 0
-64 -170 0
169 -169 0
170 -170 0
-82 -177 0
-82 -178 0
177 -177 0
178 -178 0
-100 -185 0
-100 -186 0
185 -185 0
186 -186 0
-118 -193 0
-118 -194 0
193 -193 0
194 -194 0
-136 -201 0
-136 -202 0
201 -201 0
202 -202 0
11 -145 0
11 -146 0
145 -145 0
146 -146 0
29 -153 0
29 -154 0
153 -153 0
154 -154 0
47 -161 0
47 -162 0
161 -161 0
162 -162 0
65 -169 0
65 -170 0
169 -169 0
170 -170 0
83 -177 0
83 -178 0
177 -177 0
178 -178 0
101 -185 0
101 -186 0
185 -185 0
186 -186 0
119 -193 0
119 -194 0
193 -193 0
194 -194 0
137 -201 0
137 -202 0
201 -201 0
202 -202 0
-12 -145 0
-12 -146 0
145 -145 0
146 -146 0
-30 -153 0
-30 -154 0
153 -153 0
154 -154 0
-48 -161 0
-48 -162 0
161 -161 0
162 -162 0
-66 -169 0
-66 -170 0
169 -169 0
170 -170 0
-84 -177 0
-84 -178 0
177 -177 0
178 -178 0
-102 -185 0
-102 -186 0
185 -185 0
186 -186 0
-120 -193 0
-120 -194 0
193 -193 0
194 -194 0
-138 -201 0
-138 -202 0
201 -201 0
202 -202 0
-13 -145 0
-13 -146 0
145 -145 0
146 -146 0
-31 -153 0
-31 -154 0
153 -153 0
154 -154 0
-49 -161 0
-49 -162 0
161 -161 0
162 -162 0
-67 -169 0
-67 -170 0
169 -169 0
170 -170 0
-85 -177 0
-85 -178 0
177 -177 0
178 -178 0
-103 -185 0
-103 -186 0
185 -185 0
186 -186 0
-121 -193 0
-121 -194 0
193 -193 0
194 -194 0
-139 -201 0
-139 -202 0
201 -201 0
202 -202 0
-14 -145 0
-14 -146 0
145 -145 0
146 -146 0
-32 -153 0
-32 -154 0
153 -153 0
154 -154 0
-50 -161 0
-50 -162 0
161 -161 0
162 -162 0
-68 -169 0
-68 -170 0
169 -169 0
170 -170 0
-86 -177 0
-86 -178 0
177 -177 0
178 -178 0
-104 -185 0
-104 -186 0
185 -185 0
186 -186 0
-122 -193 0
-122 -194 0
193 -193 0
194 -194 0
-140 -201 0
-140 -202 0
201 -201 0
202 -202 0
-15 -145 0
-15 -146 0
145 -145 0
146 -146 0
-33 -153 0
-33 -154 0
153 -153 0
154 -154 0
-51 -161 0
-51 -162 0
161 -161 0
162 -162 0
-69 -169 0
-69 -170 0
169 -169 0
170 -170 0
-87 -177 0
-87 -178 0
177 -177 0
178 -178 0
-105 -185 0
-105 -186 0
185 -185 0
186 -186 0
-123 -193 0
-123 -194 0
193 -193 0
194 -194 0
-141 -201 0
-141 -202 0
201 -201 0
202 -202 0
-16 -145 0
-16 -146 0
145 -145 0
146 -146 0
-34 -153 0
-34 -154 0
153 -153 0
154 -154 0
-52 -161 0
-52 -162 0
161 -161 0
162 -162 0
-70 -169 0
-70 -170 0
169 -169 0
170 -170 0
-88 -177 0
-88 -178 0
177 -177 0
178 -178 0
-106 -185 0
-106 -186 0
185 -185 0
186 -186 0
-124 -193 0
-124 -194 0
193 -193 0
194 -194 0
-142 -201 0
-142 -202 0
201 -201 0
202 -202 0
-17 -145 0
-17 -146 0
145 -145 0
146 -146 0
-35 -153 0
-35 -154 0
153 -153 0
154 -154 0
-53 -161 0
-53 -162 0
161 -161 0
162 -162 0
-71 -169 0
-71 -170 0
169 -169 0
170 -170 0
-89 -177 0
-89 -178 0
177 -177 0
178 -178 0
-107 -185 0
-107 -186 0
185 -185 0
186 -186 0
-125 -193 0
-125 -194 0
193 -193 0
194 -194 0
-143 -201 0
-143 -202 0
201 -201 0
202 -202 0
18 -145 0
18 -146 0
145 -145 0
146 -146 0
36 -153 0
36 -154 0
153 -153 0
154 -154 0
54 -161 0
54 -162 0
161 -161 0
162 -162 0
72 -169 0
72 -170 0
169 -169 0
170 -170 0
90 -177 0
90 -178 0
177 -177 0
178 -178 0
108 -185 0
108 -186 0
185 -185 0
186 -186 0
126 -193 0
126 -194 0
193 -193 0
194 -194 0
144 -201 0
144 -202 0
201 -201 0
202 -202 0
-281 145 0
281 -145 0
-282 146 0
281 -146 0
-281 -145 0
-282 -146 0
-289 145 281 0
289 -145 0
289 -281 0
-290 146 282 0
290 -146 0
290 -282 0
-289 -153 0
-290 -154 0
-297 153 289 0
297 -153 0
297 -289 0
-298 154 290 0
298 -154 0
298 -290 0
-297 -161 0
-298 -162 0
-305 161 297 0
305 -161 0
305 -297 0
-306 162 298 0
306 -162 0
306 -298 0
-305 -169 0
-306 -170 0
-313 169 305 0
313 -169 0
313 -305 0
-314 170 306 0
314 -170 0
314 -306 0
-313 -177 0
-314 -178 0
-321 177 313 0
321 -177 0
321 -313 0
-322 178 314 0
322 -178 0
322 -314 0
-321 -185 0
-322 -186 0
-329 185 321 0
329 -185 0
329 -321 0
-330 186 322 0
330 -186 0
330 -322 0
-329 -193 0
-330 -194 0
-337 193 329 0
337 -193 0
337 -329 0
-338 194 330 0
338 -194 0
338 -330 0
-337 -201 0
-338 -202 0
337 0
338 0
1 -147 0
1 -148 0
147 -147 0
148 -148 0
19 -155 0
19 -156 0
155 -155 0
156 -156 0
37 -163 0
37 -164 0
163 -163 0
164 -164 0
55 -171 0
55 -172 0
171 -171 0
172 -172 0
73 -179 0
73 -180 0
179 -179 0
180 -180 0
91 -187 0
91 -188 0
187 -187 0
188 -188 0
109 -195 0
109 -196 0
195 -195 0
196 -196 0
127 -203 0
127 -204 0
203 -203 0
204 -204 0
-2 -147 0
-2 -148 0
147 -147 0
148 -148 0
-20 -155 0
-20 -156 0
155 -155 0
156 -156 0
-38 -163 0
-38 -164 0
163 -163 0
164 -164 0
-56 -171 0
-56 -172 0
171 -171 0
172 -172 0
-74 -179 0
-74 -180 0
179 -179 0
180 -180 0
-92 -187 0
-92 -188 0
187 -187 0
188 -188 0
-110 -195 0
-110 -196 0
195 -195 0
196 -196 0
-128 -203 0
-128 -204 0
203 -203 0
204 -204 0
3 -147 0
3 -148 0
147 -147 0
148 -148 0
21 -155 0
21 -156 0
155 -155 0
156 -156 0
39 -163 0
39 -164 0
163 -163 0
164 -164 0
57 -171 0
57 -172 0
171 -171 0
172 -172 0
75 -179 0
75 -180 0
179 -179 0
180 -180 0
93 -187 0
93 -188 0
187 -187 0
188 -188 0
111 -195 0
111 -196 0
195 -195 0
196 -196 0
129 -203 0
129 -204 0
203 -203 0
204 -204 0
-4 -147 0
-4 -148 0
147 -147 0
148 -148 0
-22 -155 0
-22 -156 0
155 -155 0
156 -156 0
-40 -163 0
-40 -164 0
163 -163 0
164 -164 0
-58 -171 0
-58 -172 0
171 -171 0
172 -172 0
-76 -179 0
-76 -180 0
179 -179 0
180 -180 0
-94 -187 0
-94 -188 0
187 -187 0
188 -188 0
-112 -195 0
-112 -196 0
195 -195 0
196 -196 0
-130 -203 0
-130 -204 0
203 -203 0
204 -204 0
-5 -147 0
-5 -148 0
147 -147 0
148 -148 0
-23 -155 0
-23 -156 0
155 -155 0
156 -156 0
-41 -163 0
-41 -164 0
163 -163 0
164 -164 0
-59 -171 0
-59 -172 0
171 -171 0
172 -172 0
-77 -179 0
-77 -180 0
179 -179 0
180 -180 0
-95 -187 0
-95 -188 0
187 -187 0
188 -188 0
-113 -195 0
-113 -196 0
195 -195 0
196 -196 0
-131 -203 0
-131 -204 0
203 -203 0
204 -204 0
6 -147 0
6 -148 0
147 -147 0
148 -148 0
24 -155 0
24 -156 0
155 -155 0
156 -156 0
42 -163 0
42 -164 0
163 -163 0
164 -164 0
60 -171 0
60 -172 0
171 -171 0
172 -172 0
78 -179 0
78 -180 0
179 -179 0
180 -180 0
96 -187 0
96 -188 0
187 -187 0
188 -188 0
114 -195 0
114 -196 0
195 -195 0
196 -196 0
132 -203 0
132 -204 0
203 -203 0
204 -204 0
-7 -147 0
-7 -148 0
147 -147 0
148 -148 0
-25 -155 0
-25 -156 0
155 -155 0
156 -156 0
-43 -163 0
-43 -164 0
163 -163 0
164 -164 0
-61 -171 0
-61 -172 0
171 -171 0
172 -172 0
-79 -179 0
-79 -180 0
179 -179 0
180 -180 0
-97 -187 0
-97 -188 0
187 -187 0
188 -188 0
-115 -195 0
-115 -196 0
195 -195 0
196 -196 0
-133 -203 0
-133 -204 0
203 -203 0
204 -204 0
8 -147 0
8 -148 0
147 -147 0
148 -148 0
26 -155 0
26 -156 0
155 -155 0
156 -156 0
44 -163 0
44 -164 0
163 -163 0
164 -164 0
62 -171 0
62 -172 0
171 -171 0
172 -172 0
80 -179 0
80 -180 0
179 -179 0
180 -180 0
98 -187 0
98 -188 0
187 -187 0
188 -188 0
116 -195 0
116 -196 0
195 -195 0
196 -196 0
134 -203 0
134 -204 0
203 -203 0
204 -204 0
9 -147 0
9 -148 0
147 -147 0
148 -148 0
27 -155 0
27 -156 0
155 -155 0
156 -156 0
45 -163 0
45 -164 0
163 -163 0
164 -164 0
63 -171 0
63 -172 0
171 -171 0
172 -172 0
81 -179 0
81 -180 0
179 -179 0
180 -180 0
99 -187 0
99 -188 0
187 -187 0
188 -188 0
117 -195 0
117 -196 0
195 -195 0
196 -196 0
135 -203 0
135 -204 0
203 -203 0
204 -204 0
-10 -147 0
-10 -148 0
147 -147 0
148 -148 0
-28 -155 0
-28 -156 0
155 -155 0
156 -156 0
-46 -163 0
-46 -164 0
163 -163 0
164 -164 0
-64 -171 0
-64 -172 0
171 -171 0
172 -172 0
-82 -179 0
-82 -180 0
179 -179 0
180 -180 0
-100 -187 0
-100 -188 0
187 -187 0
188 -188 0
-118 -195 0
-118 -196 0
195 -195 0
196 -196 0
-136 -203 0
-136 -204 0
203 -203 0
204 -204 0
11 -147 0
11 -148 0
147 -147 0
148 -148 0
29 -155 0
29 -156 0
155 -155 0
156 -156 0
47 -163 0
47 -164 0
163 -163 0
164 -164 0
65 -171 0
65 -172 0
171 -171 0
172 -172 0
83 -179 0
83 -180 0
179 -179 0
180 -180 0
101 -187 0
101 -188 0
187 -187 0
188 -188 0
119 -195 0
119 -196 0
195 -195 0
196 -196 0
137 -203 0
137 -204 0
203 -203 0
204 -204 0
-12 -147 0
-12 -148 0
147 -147 0
148 -148 0
-30 -155 0
-30 -156 0
155 -155 0
156 -156 0
-48 -163 0
-48 -164 0
163 -163 0
164 -164 0
-66 -171 0
-66 -172 0
171 -171 0
172 -172 0
-84 -179 0
-84 -180 0
179 -179 0
180 -180 0
-102 -187 0
-102 -188 0
187 -187 0
188 -188 0
-120 -195 0
-120 -196 0
195 -195 0
196 -196 0
-138 -203 0
-138 -204 0
203 -203 0
204 -204 0
-13 -147 0
-13 -148 0
147 -147 0
148 -148 0
-31 -155 0
-31 -156 0
155 -155 0
156 -156 0
-49 -163 0
-49 -164 0
163 -163 0
164 -164 0
-67 -171 0
-67 -172 0
171 -171 0
172 -172 0
-85 -179 0
-85 -180 0
179 -179 0
180 -180 0
-103 -187 0
-103 -188 0
187 -187 0
188 -188 0
-121 -195 0
-121 -196 0
195 -195 0
196 -196 0
-139 -203 0
-139 -204 0
203 -203 0
204 -204 0
-14 -147 0
-14 -148 0
147 -147 0
148 -148 0
-32 -155 0
-32 -156 0
155 -155 0
156 -156 0
-50 -163 0
-50 -164 0
163 -163 0
164 -164 0
-68 -171 0
-68 -172 0
171 -171 0
172 -172 0
-86 -179 0
-86 -180 0
179 -179 0
180 -180 0
-104 -187 0
-104 -188 0
187 -187 0
188 -188 0
-122 -195 0
-122 -196 0
195 -195 0
196 -196 0
-140 -203 0
-140 -204 0
203 -203 0
204 -204 0
15 -147 0
15 -148 0
147 -147 0
148 -148 0
33 -155 0
33 -156 0
155 -155 0
156 -156 0
51 -163 0
51 -164 0
163 -163 0
164 -164 0
69 -171 0
69 -172 0
171 -171 0
172 -172 0
87 -179 0
87 -180 0
179 -179 0
180 -180 0
105 -187 0
105 -188 0
187 -187 0
188 -188 0
123 -195 0
123 -196 0
195 -195 0
196 -196 0
141 -203 0
141 -204 0
203 -203 0
204 -204 0
-16 -147 0
-16 -148 0
147 -147 0
148 -148 0
-34 -155 0
-34 -156 0
155 -155 0
156 -156 0
-52 -163 0
-52 -164 0
163 -163 0
164 -164 0
-70 -171 0
-70 -172 0
171 -171 0
172 -172 0
-88 -179 0
-88 -180 0
179 -179 0
180 -180 0
-106 -187 0
-106 -188 0
187 -187 0
188 -188 0
-124 -195 0
-124 -196 0
195 -195 0
196 -196 0
-142 -203 0
-142 -204 0
203 -203 0
204 -204 0
17 -147 0
17 -148 0
147 -147 0
148 -148 0
35 -155 0
35 -156 0
155 -155 0
156 -156 0
53 -163 0
53 -164 0
163 -163 0
164 -164 0
71 -171 0
71 -172 0
171 -171 0
172 -172 0
89 -179 0
89 -180 0
179 -179 0
180 -180 0
107 -187 0
107 -188 0
187 -187 0
188 -188 0
125 -195 0
125 -196 0
195 -195 0
196 -196 0
143 -203 0
143 -204 0
203 -203 0
204 -204 0
18 -147 0
18 -148 0
147 -147 0
148 -148 0
36 -155 0
36 -156 0
155 -155 0
156 -156 0
54 -163 0
54 -164 0
163 -163 0
164 -164 0
72 -171 0
72 -172 0
171 -171 0
172 -172 0
90 -179 0
90 -180 0
179 -179 0
180 -180 0
108 -187 0
108 -188 0
187 -187 0
188 -188 0
126 -195 0
126 -196 0
195 -195 0
196 -196 0
144 -203 0
144 -204 0
203 -203 0
204 -204 0
-283 147 0
283 -147 0
-284 148 0
283 -148 0
-283 -147 0
-284 -148 0
-291 147 283 0
291 -147 0
291 -283 0
-292 148 284 0
292 -148 0
292 -284 0
-291 -155 0
-292 -156 0
-299 155 291 0
299 -155 0
299 -291 0
-300 156 292 0
300 -156 0
300 -292 0
-299 -163 0
-300 -164 0
-307 163 299 0
307 -163 0
307 -299 0
-308 164 300 0
308 -164 0
308 -300 0
-307 -171 0
-308 -172 0
-315 171 307 0
315 -171 0
315 -307 0
-316 172 308 0
316 -172 0
316 -308 0
-315 -179 0
-316 -180 0
-323 179 315 0
323 -179 0
323 -315 0
-324 180 316 0
324 -180 0
324 -316 0
-323 -187 0
-324 -188 0
-331 187 323 0
331 -187 0
331 -323 0
-332 188 324 0
332 -188 0
332 -324 0
-331 -195 0
-332 -196 0
-339 195 331 0
339 -195 0
339 -331 0
-340 196 332 0
340 -196 0
340 -332 0
-339 -203 0
-340 -204 0
339 0
340 0
1 -209 -149 0
-1 209 -149 0
1 209 -150 0
-1 -209 -150 0
19 -209 -157 0
-19 209 -157 0
19 209 -158 0
-19 -209 -158 0
37 -209 -165 0
-37 209 -165 0
37 209 -166 0
-37 -209 -166 0
55 -209 -173 0
-55 209 -173 0
55 209 -174 0
-55 -209 -174 0
73 -209 -181 0
-73 209 -181 0
73 209 -182 0
-73 -209 -182 0
91 -209 -189 0
-91 209 -189 0
91 209 -190 0
-91 -209 -190 0
109 -209 -197 0
-109 209 -197 0
109 209 -198 0
-109 -209 -198 0
127 -209 -205 0
-127 209 -205 0
127 209 -206 0
-127 -209 -206 0
2 -149 0
2 -150 0
149 -149 0
150 -150 0
20 -157 0
20 -158 0
157 -157 0
158 -158 0
38 -165 0
38 -166 0
165 -165 0
166 -166 0
56 -173 0
56 -174 0
173 -173 0
174 -174 0
74 -181 0
74 -182 0
181 -181 0
182 -182 0
92 -189 0
92 -190 0
189 -189 0
190 -190 0
110 -197 0
110 -198 0
197 -197 0
198 -198 0
128 -205 0
128 -206 0
205 -205 0
206 -206 0
3 -210 -149 0
-3 210 -149 0
3 210 -150 0
-3 -210 -150 0
21 -210 -157 0
-21 210 -157 0
21 210 -158 0
-21 -210 -158 0
39 -210 -165 0
-39 210 -165 0
39 210 -166 0
-39 -210 -166 0
57 -210 -173 0
-57 210 -173 0
57 210 -174 0
-57 -210 -174 0
75 -210 -181 0
-75 210 -181 0
75 210 -182 0
-75 -210 -182 0
93 -210 -189 0
-93 210 -189 0
93 210 -190 0
-93 -210 -190 0
111 -210 -197 0
-111 210 -197 0
111 210 -198 0
-111 -210 -198 0
129 -210 -205 0
-129 210 -205 0
129 210 -206 0
-129 -210 -206 0
4 -149 0
4 -150 0
149 -149 0
150 -150 0
22 -157 0
22 -158 0
157 -157 0
158 -158 0
40 -165 0
40 -166 0
165 -165 0
166 -166 0
58 -173 0
58 -174 0
173 -173 0
174 -174 0
76 -181 0
76 -182 0
181 -181 0
182 -182 0
94 -189 0
94 -190 0
189 -189 0
190 -190 0
112 -197 0
112 -198 0
197 -197 0
198 -198 0
130 -205 0
130 -206 0
205 -205 0
206 -206 0
5 -149 0
5 -150 0
149 -149 0
150 -150 0
23 -157 0
23 -158 0
157 -157 0
158 -158 0
41 -165 0
41 -166 0
165 -165 0
166 -166 0
59 -173 0
59 -174 0
173 -173 0
174 -174 0
77 -181 0
77 -182 0
181 -181 0
182 -182 0
95 -189 0
95 -190 0
189 -189 0
190 -190 0
113 -197 0
113 -198 0
197 -197 0
198 -198 0
131 -205 0
131 -206 0
205 -205 0
206 -206 0
6 -211 -149 0
-6 211 -149 0
6 211 -150 0
-6 -211 -150 0
24 -211 -157 0
-24 211 -157 0
24 211 -158 0
-24 -211 -158 0
42 -211 -165 0
-42 211 -165 0
42 211 -166 0
-42 -211 -166 0
60 -211 -173 0
-60 211 -173 0
60 211 -174 0
-60 -211 -174 0
78 -211 -181 0
-78 211 -181 0
78 211 -182 0
-78 -211 -182 0
96 -211 -189 0
-96 211 -189 0
96 211 -190 0
-96 -211 -190 0
114 -211 -197 0
-114 211 -197 0
114 211 -198 0
-114 -211 -198 0
132 -211 -205 0
-132 211 -205 0
132 211 -206 0
-132 -211 -206 0
7 -212 -149 0
-7 212 -149 0
7 212 -150 0
-7 -212 -150 0
25 -212 -157 0
-25 212 -157 0
25 212 -158 0
-25 -212 -158 0
43 -212 -165 0
-43 212 -165 0
43 212 -166 0
-43 -212 -166 0
61 -212 -173 0
-61 212 -173 0
61 212 -174 0
-61 -212 -174 0
79 -212 -181 0
-79 212 -181 0
79 212 -182 0
-79 -212 -182 0
97 -212 -189 0
-97 212 -189 0
97 212 -190 0
-97 -212 -190 0
115 -212 -197 0
-115 212 -197 0
115 212 -198 0
-115 -212 -198 0
133 -212 -205 0
-133 212 -205 0
133 212 -206 0
-133 -212 -206 0
8 -213 -149 0
-8 213 -149 0
8 213 -150 0
-8 -213 -150 0
26 -213 -157 0
-26 213 -157 0
26 213 -158 0
-26 -213 -158 0
44 -213 -165 0
-44 213 -165 0
44 213 -166 0
-44 -213 -166 0
62 -213 -173 0
-62 213 -173 0
62 213 -174 0
-62 -213 -174 0
80 -213 -181 0
-80 213 -181 0
80 213 -182 0
-80 -213 -182 0
98 -213 -189 0
-98 213 -189 0
98 213 -190 0
-98 -213 -190 0
116 -213 -197 0
-116 213 -197 0
116 213 -198 0
-116 -213 -198 0
134 -213 -205 0
-134 213 -205 0
134 213 -206 0
-134 -213 -206 0
9 -214 -149 0
-9 214 -149 0
9 214 -150 0
-9 -214 -150 0
27 -214 -157 0
-27 214 -157 0
27 214 -158 0
-27 -214 -158 0
45 -214 -165 0
-45 214 -165 0
45 214 -166 0
-45 -214 -166 0
63 -214 -173 0
-63 214 -173 0
63 214 -174 0
-63 -214 -174 0
81 -214 -181 0
-81 214 -181 0
81 214 -182 0
-81 -214 -182 0
99 -214 -189 0
-99 214 -189 0
99 214 -190 0
-99 -214 -190 0
117 -214 -197 0
-117 214 -197 0
117 214 -198 0
-117 -214 -198 0
135 -214 -205 0
-135 214 -205 0
135 214 -206 0
-135 -214 -206 0
10 -215 -149 0
-10 215 -149 0
10 215 -150 0
-10 -215 -150 0
28 -215 -157 0
-28 215 -157 0
28 215 -158 0
-28 -215 -158 0
46 -215 -165 0
-46 215 -165 0
46 215 -166 0
-46 -215 -166 0
64 -215 -173 0
-64 215 -173 0
64 215 -174 0
-64 -215 -174 0
82 -215 -181 0
-82 215 -181 0
82 215 -182 0
-82 -215 -182 0
100 -215 -189 0
-100 215 -189 0
100 215 -190 0
-100 -215 -190 0
118 -215 -197 0
-118 215 -197 0
118 215 -198 0
-118 -215 -198 0
136 -215 -205 0
-136 215 -205 0
136 215 -206 0
-136 -215 -206 0
11 -216 -149 0
-11 216 -149 0
11 216 -150 0
-11 -216 -150 0
29 -216 -157 0
-29 216 -157 0
29 216 -158 0
-29 -216 -158 0
47 -216 -165 0
-47 216 -165 0
47 216 -166 0
-47 -216 -166 0
65 -216 -173 0
-65 216 -173 0
65 216 -174 0
-65 -216 -174 0
83 -216 -181 0
-83 216 -181 0
83 216 -182 0
-83 -216 -182 0
101 -216 -189 0
-101 216 -189 0
101 216 -190 0
-101 -216 -190 0
119 -216 -197 0
-119 216 -197 0
119 216 -198 0
-119 -216 -198 0
137 -216 -205 0
-137 216 -205 0
137 216 -206 0
-137 -216 -206 0
12 -217 -149 0
-12 217 -149 0
12 217 -150 0
-12 -217 -150 0
30 -217 -157 0
-30 217 -157 0
30 217 -158 0
-30 -217 -158 0
48 -217 -165 0
-48 217 -165 0
48 217 -166 0
-48 -217 -166 0
66 -217 -173 0
-66 217 -173 0
66 217 -174 0
-66 -217 -174 0
84 -217 -181 0
-84 217 -181 0
84 217 -182 0
-84 -217 -182 0
102 -217 -189 0
-102 217 -189 0
102 217 -190 0
-102 -217 -190 0
120 -217 -197 0
-120 217 -197 0
120 217 -198 0
-120 -217 -198 0
138 -217 -205 0
-138 217 -205 0
138 217 -206 0
-138 -217 -206 0
13 -218 -149 0
-13 218 -149 0
13 218 -150 0
-13 -218 -150 0
31 -218 -157 0
-31 218 -157 0
31 218 -158 0
-31 -218 -158 0
49 -218 -165 0
-49 218 -165 0
49 218 -166 0
-49 -218 -166 0
67 -218 -173 0
-67 218 -173 0
67 218 -174 0
-67 -218 -174 0
85 -218 -181 0
-85 218 -181 0
85 218 -182 0
-85 -218 -182 0
103 -218 -189 0
-103 218 -189 0
103 218 -190 0
-103 -218 -190 0
121 -218 -197 0
-121 218 -197 0
121 218 -198 0
-121 -218 -198 0
139 -218 -205 0
-139 218 -205 0
139 218 -206 0
-139 -218 -206 0
14 -219 -149 0
-14 219 -149 0
14 219 -150 0
-14 -219 -150 0
32 -219 -157 0
-32 219 -157 0
32 219 -158 0
-32 -219 -158 0
50 -219 -165 0
-50 219 -165 0
50 219 -166 0
-50 -219 -166 0
68 -219 -173 0
-68 219 -173 0
68 219 -174 0
-68 -219 -174 0
86 -219 -181 0
-86 219 -181 0
86 219 -182 0
-86 -219 -182 0
104 -219 -189 0
-104 219 -189 0
104 219 -190 0
-104 -219 -190 0
122 -219 -197 0
-122 219 -197 0
122 219 -198 0
-122 -219 -198 0
140 -219 -205 0
-140 219 -205 0
140 219 -206 0
-140 -219 -206 0
15 -220 -149 0
-15 220 -149 0
15 220 -150 0
-15 -220 -150 0
33 -220 -157 0
-33 220 -157 0
33 220 -158 0
-33 -220 -158 0
51 -220 -165 0
-51 220 -165 0
51 220 -166 0
-51 -220 -166 0
69 -220 -173 0
-69 220 -173 0
69 220 -174 0
-69 -220 -174 0
87 -220 -181 0
-87 220 -181 0
87 220 -182 0
-87 -220 -182 0
105 -220 -189 0
-105 220 -189 0
105 220 -190 0
-105 -220 -190 0
123 -220 -197 0
-123 220 -197 0
123 220 -198 0
-123 -220 -198 0
141 -220 -205 0
-141 220 -205 0
141 220 -206 0
-141 -220 -206 0
16 -221 -149 0
-16 221 -149 0
16 221 -150 0
-16 -221 -150 0
34 -221 -157 0
-34 221 -157 0
34 221 -158 0
-34 -221 -158 0
52 -221 -165 0
-52 221 -165 0
52 221 -166 0
-52 -221 -166 0
70 -221 -173 0
-70 221 -173 0
70 221 -174 0
-70 -221 -174 0
88 -221 -181 0
-88 221 -181 0
88 221 -182 0
-88 -221 -182 0
106 -221 -189 0
-106 221 -189 0
106 221 -190 0
-106 -221 -190 0
124 -221 -197 0
-124 221 -197 0
124 221 -198 0
-124 -221 -198 0
142 -221 -205 0
-142 221 -205 0
142 221 -206 0
-142 -221 -206 0
17 -149 0
17 -150 0
149 -149 0
150 -150 0
35 -157 0
35 -158 0
157 -157 0
158 -158 0
53 -165 0
53 -166 0
165 -165 0
166 -166 0
71 -173 0
71 -174 0
173 -173 0
174 -174 0
89 -181 0
89 -182 0
181 -181 0
182 -182 0
107 -189 0
107 -190 0
189 -189 0
190 -190 0
125 -197 0
125 -198 0
197 -197 0
198 -198 0
143 -205 0
143 -206 0
205 -205 0
206 -206 0
18 -149 0
18 -150 0
149 -149 0
150 -150 0
36 -157 0
36 -158 0
157 -157 0
158 -158 0
54 -165 0
54 -166 0
165 -165 0
166 -166 0
72 -173 0
72 -174 0
173 -173 0
174 -174 0
90 -181 0
90 -182 0
181 -181 0
182 -182 0
108 -189 0
108 -190 0
189 -189 0
190 -190 0
126 -197 0
126 -198 0
197 -197 0
198 -198 0
144 -205 0
144 -206 0
205 -205 0
206 -206 0
-285 149 0
285 -149 0
-286 150 0
285 -150 0
-285 -149 0
-286 -150 0
-293 149 285 0
293 -149 0
293 -285 0
-294 150 286 0
294 -150 0
294 -286 0
-293 -157 0
-294 -158 0
-301 157 293 0
301 -157 0
301 -293 0
-302 158 294 0
302 -158 0
302 -294 0
-301 -165 0
-302 -166 0
-309 165 301 0
309 -165 0
309 -301 0
-310 166 302 0
310 -166 0
310 -302 0
-309 -173 0
-310 -174 0
-317 173 309 0
317 -173 0
317 -309 0
-318 174 310 0
318 -174 0
318 -310 0
-317 -181 0
-318 -182 0
-325 181 317 0
325 -181 0
325 -317 0
-326 182 318 0
326 -182 0
326 -318 0
-325 -189 0
-326 -190 0
-333 189 325 0
333 -189 0
333 -325 0
-334 190 326 0
334 -190 0
334 -326 0
-333 -197 0
-334 -198 0
-341 197 333 0
341 -197 0
341 -333 0
-342 198 334 0
342 -198 0
342 -334 0
-341 -205 0
-342 -206 0
341 0
342 0
1 -222 -151 0
-1 222 -151 0
1 222 -152 0
-1 -222 -152 0
19 -222 -159 0
-19 222 -159 0
19 222 -160 0
-19 -222 -160 0
37 -222 -167 0
-37 222 -167 0
37 222 -168 0
-37 -222 -168 0
55 -222 -175 0
-55 222 -175 0
55 222 -176 0
-55 -222 -176 0
73 -222 -183 0
-73 222 -183 0
73 222 -184 0
-73 -222 -184 0
91 -222 -191 0
-91 222 -191 0
91 222 -192 0
-91 -222 -192 0
109 -222 -199 0
-109 222 -199 0
109 222 -200 0
-109 -222 -200 0
127 -222 -207 0
-127 222 -207 0
127 222 -208 0
-127 -222 -208 0
2 -223 -151 0
-2 223 -151 0
2 223 -152 0
-2 -223 -152 0
20 -223 -159 0
-20 223 -159 0
20 223 -160 0
-20 -223 -160 0
38 -223 -167 0
-38 223 -167 0
38 223 -168 0
-38 -223 -168 0
56 -223 -175 0
-56 223 -175 0
56 223 -176 0
-56 -223 -176 0
74 -223 -183 0
-74 223 -183 0
74 223 -184 0
-74 -223 -184 0
92 -223 -191 0
-92 223 -191 0
92 223 -192 0
-92 -223 -192 0
110 -223 -199 0
-110 223 -199 0
110 223 -200 0
-110 -223 -200 0
128 -223 -207 0
-128 223 -207 0
128 223 -208 0
-128 -223 -208 0
3 -151 0
3 -152 0
151 -151 0
152 -152 0
21 -159 0
21 -160 0
159 -159 0
160 -160 0
39 -167 0
39 -168 0
167 -167 0
168 -168 0
57 -175 0
57 -176 0
175 -175 0
176 -176 0
75 -183 0
75 -184 0
183 -183 0
184 -184 0
93 -191 0
93 -192 0
191 -191 0
192 -192 0
111 -199 0
111 -200 0
199 -199 0
200 -200 0
129 -207 0
129 -208 0
207 -207 0
208 -208 0
4 -224 -151 0
-4 224 -151 0
4 224 -152 0
-4 -224 -152 0
22 -224 -159 0
-22 224 -159 0
22 224 -160 0
-22 -224 -160 0
40 -224 -167 0
-40 224 -167 0
40 224 -168 0
-40 -224 -168 0
58 -224 -175 0
-58 224 -175 0
58 224 -176 0
-58 -224 -176 0
76 -224 -183 0
-76 224 -183 0
76 224 -184 0
-76 -224 -184 0
94 -224 -191 0
-94 224 -191 0
94 224 -192 0
-94 -224 -192 0
112 -224 -199 0
-112 224 -199 0
112 224 -200 0
-112 -224 -200 0
130 -224 -207 0
-130 224 -207 0
130 224 -208 0
-130 -224 -208 0
5 -225 -151 0
-5 225 -151 0
5 225 -152 0
-5 -225 -152 0
23 -225 -159 0
-23 225 -159 0
23 225 -160 0
-23 -225 -160 0
41 -225 -167 0
-41 225 -167 0
41 225 -168 0
-41 -225 -168 0
59 -225 -175 0
-59 225 -175 0
59 225 -176 0
-59 -225 -176 0
77 -225 -183 0
-77 225 -183 0
77 225 -184 0
-77 -225 -184 0
95 -225 -191 0
-95 225 -191 0
95 225 -192 0
-95 -225 -192 0
113 -225 -199 0
-113 225 -199 0
113 225 -200 0
-113 -225 -200 0
131 -225 -207 0
-131 225 -207 0
131 225 -208 0
-131 -225 -208 0
6 -226 -151 0
-6 226 -151 0
6 226 -152 0
-6 -226 -152 0
24 -226 -159 0
-24 226 -159 0
24 226 -160 0
-24 -226 -160 0
42 -226 -167 0
-42 226 -167 0
42 226 -168 0
-42 -226 -168 0
60 -226 -175 0
-60 226 -175 0
60 226 -176 0
-60 -226 -176 0
78 -226 -183 0
-78 226 -183 0
78 226 -184 0
-78 -226 -184 0
96 -226 -191 0
-96 226 -191 0
96 226 -192 0
-96 -226 -192 0
114 -226 -199 0
-114 226 -199 0
114 226 -200 0
-114 -226 -200 0
132 -226 -207 0
-132 226 -207 0
132 226 -208 0
-132 -226 -208 0
-7 -151 0
-7 -152 0
151 -151 0
152 -152 0
-25 -159 0
-25 -160 0
159 -159 0
160 -160 0
-43 -167 0
-43 -168 0
167 -167 0
168 -168 0
-61 -175 0
-61 -176 0
175 -175 0
176 -176 0
-79 -183 0
-79 -184 0
183 -183 0
184 -184 0
-97 -191 0
-97 -192 0
191 -191 0
192 -192 0
-115 -199 0
-115 -200 0
199 -199 0
200 -200 0
-133 -207 0
-133 -208 0
207 -207 0
208 -208 0
8 -227 -151 0
-8 227 -151 0
8 227 -152 0
-8 -227 -152 0
26 -227 -159 0
-26 227 -159 0
26 227 -160 0
-26 -227 -160 0
44 -227 -167 0
-44 227 -167 0
44 227 -168 0
-44 -227 -168 0
62 -227 -175 0
-62 227 -175 0
62 227 -176 0
-62 -227 -176 0
80 -227 -183 0
-80 227 -183 0
80 227 -184 0
-80 -227 -184 0
98 -227 -191 0
-98 227 -191 0
98 227 -192 0
-98 -227 -192 0
116 -227 -199 0
-116 227 -199 0
116 227 -200 0
-116 -227 -200 0
134 -227 -207 0
-134 227 -207 0
134 227 -208 0
-134 -227 -208 0
9 -228 -151 0
-9 228 -151 0
9 228 -152 0
-9 -228 -152 0
27 -228 -159 0
-27 228 -159 0
27 228 -160 0
-27 -228 -160 0
45 -228 -167 0
-45 228 -167 0
45 228 -168 0
-45 -228 -168 0
63 -228 -175 0
-63 228 -175 0
63 228 -176 0
-63 -228 -176 0
81 -228 -183 0
-81 228 -183 0
81 228 -184 0
-81 -228 -184 0
99 -228 -191 0
-99 228 -191 0
99 228 -192 0
-99 -228 -192 0
117 -228 -199 0
-117 228 -199 0
117 228 -200 0
-117 -228 -200 0
135 -228 -207 0
-135 228 -207 0
135 228 -208 0
-135 -228 -208 0
10 -229 -151 0
-10 229 -151 0
10 229 -152 0
-10 -229 -152 0
28 -229 -159 0
-28 229 -159 0
28 229 -160 0
-28 -229 -160 0
46 -229 -167 0
-46 229 -167 0
46 229 -168 0
-46 -229 -168 0
64 -229 -175 0
-64 229 -175 0
64 229 -176 0
-64 -229 -176 0
82 -229 -183 0
-82 229 -183 0
82 229 -184 0
-82 -229 -184 0
100 -229 -191 0
-100 229 -191 0
100 229 -192 0
-100 -229 -192 0
118 -229 -199 0
-118 229 -199 0
118 229 -200 0
-118 -229 -200 0
136 -229 -207 0
-136 229 -207 0
136 229 -208 0
-136 -229 -208 0
11 -151 0
11 -152 0
151 -151 0
152 -152 0
29 -159 0
29 -160 0
159 -159 0
160 -160 0
47 -167 0
47 -168 0
167 -167 0
168 -168 0
65 -175 0
65 -176 0
175 -175 0
176 -176 0
83 -183 0
83 -184 0
183 -183 0
184 -184 0
101 -191 0
101 -192 0
191 -191 0
192 -192 0
119 -199 0
119 -200 0
199 -199 0
200 -200 0
137 -207 0
137 -208 0
207 -207 0
208 -208 0
-12 -151 0
-12 -152 0
151 -151 0
152 -152 0
-30 -159 0
-30 -160 0
159 -159 0
160 -160 0
-48 -167 0
-48 -168 0
167 -167 0
168 -168 0
-66 -175 0
-66 -176 0
175 -175 0
176 -176 0
-84 -183 0
-84 -184 0
183 -183 0
184 -184 0
-102 -191 0
-102 -192 0
191 -191 0
192 -192 0
-120 -199 0
-120 -200 0
199 -199 0
200 -200 0
-138 -207 0
-138 -208 0
207 -207 0
208 -208 0
-13 -151 0
-13 -152 0
151 -151 0
152 -152 0
-31 -159 0
-31 -160 0
159 -159 0
160 -160 0
-49 -167 0
-49 -168 0
167 -167 0
168 -168 0
-67 -175 0
-67 -176 0
175 -175 0
176 -176 0
-85 -183 0
-85 -184 0
183 -183 0
184 -184 0
-103 -191 0
-103 -192 0
191 -191 0
192 -192 0
-121 -199 0
-121 -200 0
199 -199 0
200 -200 0
-139 -207 0
-139 -208 0
207 -207 0
208 -208 0
-14 -151 0
-14 -152 0
151 -151 0
152 -152 0
-32 -159 0
-32 -160 0
159 -159 0
160 -160 0
-50 -167 0
-50 -168 0
167 -167 0
168 -168 0
-68 -175 0
-68 -176 0
175 -175 0
176 -176 0
-86 -183 0
-86 -184 0
183 -183 0
184 -184 0
-104 -191 0
-104 -192 0
191 -191 0
192 -192 0
-122 -199 0
-122 -200 0
199 -199 0
200 -200 0
-140 -207 0
-140 -208 0
207 -207 0
208 -208 0
15 -151 0
15 -152 0
151 -151 0
152 -152 0
33 -159 0
33 -160 0
159 -159 0
160 -160 0
51 -167 0
51 -168 0
167 -167 0
168 -168 0
69 -175 0
69 -176 0
175 -175 0
176 -176 0
87 -183 0
87 -184 0
183 -183 0
184 -184 0
105 -191 0
105 -192 0
191 -191 0
192 -192 0
123 -199 0
123 -200 0
199 -199 0
200 -200 0
141 -207 0
141 -208 0
207 -207 0
208 -208 0
-16 -151 0
-16 -152 0
151 -151 0
152 -152 0
-34 -159 0
-34 -160 0
159 -159 0
160 -160 0
-52 -167 0
-52 -168 0
167 -167 0
168 -168 0
-70 -175 0
-70 -176 0
175 -175 0
176 -176 0
-88 -183 0
-88 -184 0
183 -183 0
184 -184 0
-106 -191 0
-106 -192 0
191 -191 0
192 -192 0
-124 -199 0
-124 -200 0
199 -199 0
200 -200 0
-142 -207 0
-142 -208 0
207 -207 0
208 -208 0
17 -151 0
17 -152 0
151 -151 0
152 -152 0
35 -159 0
35 -160 0
159 -159 0
160 -160 0
53 -167 0
53 -168 0
167 -167 0
168 -168 0
71 -175 0
71 -176 0
175 -175 0
176 -176 0
89 -183 0
89 -184 0
183 -183 0
184 -184 0
107 -191 0
107 -192 0
191 -191 0
192 -192 0
125 -199 0
125 -200 0
199 -199 0
200 -200 0
143 -207 0
143 -208 0
207 -207 0
208 -208 0
18 -151 0
18 -152 0
151 -151 0
152 -152 0
36 -159 0
36 -160 0
159 -159 0
160 -160 0
54 -167 0
54 -168 0
167 -167 0
168 -168 0
72 -175 0
72 -176 0
175 -175 0
176 -176 0
90 -183 0
90 -184 0
183 -183 0
184 -184 0
108 -191 0
108 -192 0
191 -191 0
192 -192 0
126 -199 0
126 -200 0
199 -199 0
200 -200 0
144 -207 0
144 -208 0
207 -207 0
208 -208 0
-287 151 0
287 -151 0
-288 152 0
287 -152 0
-287 -151 0
-288 -152 0
-295 151 287 0
295 -151 0
295 -287 0
-296 152 288 0
296 -152 0
296 -288 0
-295 -159 0
-296 -160 0
-303 159 295 0
303 -159 0
303 -295 0
-304 160 296 0
304 -160 0
304 -296 0
-303 -167 0
-304 -168 0
-311 167 303 0
311 -167 0
311 -303 0
-312 168 304 0
312 -168 0
312 -304 0
-311 -175 0
-312 -176 0
-319 175 311 0
319 -175 0
319 -311 0
-320 176 312 0
320 -176 0
320 -312 0
-319 -183 0
-320 -184 0
-327 183 319 0
327 -183 0
327 -319 0
-328 184 320 0
328 -184 0
328 -320 0
-327 -191 0
-328 -192 0
-335 191 327 0
335 -191 0
335 -327 0
-336 192 328 0
336 -192 0
336 -328 0
-335 -199 0
-336 -200 0
-343 199 335 0
343 -199 0
343 -335 0
-344 200 336 0
344 -200 0
344 -336 0
-343 -207 0
-344 -208 0
343 0
344 0
